c instance by G2
c solution = 011010101011001
c Known solution cost is 788 
p cnf 15 30
w 69 79 12 53 34 50 58 90 10 27 58 29 83 49 87
-12 -7 -6 0
1 -15 -13 0
-4 -9 -2 0
-12 11 13 0
-6 14 -15 0
14 -8 10 0
11 -13 -8 0
14 -10 -11 0
13 1 11 0
-12 5 1 0
4 12 -7 0
-7 -1 8 0
-4 1 -12 0
9 14 -15 0
8 -4 14 0
13 -2 11 0
3 4 1 0
11 -5 -10 0
-14 -7 -15 0
-3 7 1 0
6 -4 -2 0
2 1 -15 0
8 -9 15 0
5 8 6 0
-5 12 11 0
-2 -1 -7 0
3 -15 6 0
11 8 13 0
8 -1 -2 0
-14 -12 4 0
